s td 177 2 217
b 1 1
b 2 2 83
b 3 2 178
b 4 178 179
b 5 3 110
b 6 180 181
b 7 4 180
b 8 4 216
b 9 5 194
b 10 6
b 11 7 208
b 12 8 92
b 13 8 127
b 14 9 67
b 15 102 103
b 16 9 102
b 17 9 175
b 18 10 101
b 19 11
b 20 12 51
b 21 12 195
b 22 13
b 23 14 203
b 24 202 203
b 25 203
b 26 15 96
b 27 16 97
b 28 17 123
b 29 17 130
b 30 17 187
b 31 18
b 32 19
b 33 20 145
b 34 20 172
b 35 21
b 36 22
b 37 23 161
b 38 160 161
b 39 161
b 40 24
b 41 54 55
b 42 25 54
b 43 25 106
b 44 106 107
b 45 26 162
b 46 27 113
b 47 27 166
b 48 28 167
b 49 29 81
b 50 80 81
b 51 81
b 52 30 56
b 53 30 211
b 54 210 211
b 55 211
b 56 31 95
b 57 70 71
b 58 32 71
b 59 32 86
b 60 32 192
b 61 39 91
b 62 39 193
b 63 192 193
b 64 193
b 65 33 132
b 66 33 163
b 67 34 61
b 68 35 89
b 69 36 196
b 70 36 213
b 71 37 149
b 72 37 156
b 73 38 152
b 74 152 153
b 75 40
b 76 41 63
b 77 41 68
b 78 42 64
b 79 42 171
b 80 42 183
b 81 182 183
b 82 183
b 83 43 197
b 84 44 151
b 85 45 139
b 86 46 109
b 87 46 184
b 88 47 135
b 89 47 185
b 90 48 73
b 91 49 65
b 92 49 159
b 93 50
b 94 52
b 95 53
b 96 57
b 97 58
b 98 59
b 99 60
b 100 62
b 101 66
b 102 69
b 103 72
b 104 74
b 105 75
b 106 76 77
b 107 78
b 108 79
b 109 82
b 110 84 85
b 111 87
b 112 88
b 113 90
b 114 93
b 115 94
b 116 98
b 117 99
b 118 100
b 119 104
b 120 105
b 121 108
b 122 111
b 123 112
b 124 114
b 125 115
b 126 116
b 127 117
b 128 118 119
b 129 120 121
b 130 122
b 131 124
b 132 125
b 133 126
b 134 128
b 135 129
b 136 131
b 137 133
b 138 134
b 139 136 137
b 140 138
b 141 140
b 142 141
b 143 142
b 144 143
b 145 144
b 146 146
b 147 147
b 148 148
b 149 150
b 150 154 155
b 151 157
b 152 158
b 153 164
b 154 165
b 155 168
b 156 169
b 157 170
b 158 173
b 159 174
b 160 176
b 161 177
b 162 186
b 163 188
b 164 189
b 165 190 191
b 166 198
b 167 199
b 168 200
b 169 201
b 170 204
b 171 205
b 172 206
b 173 207
b 174 209
b 175 212
b 176 214 215
b 177 217
1 2
1 5
1 6
1 9
1 10
1 11
1 12
1 14
1 18
1 19
1 20
1 22
1 23
1 26
1 27
1 28
1 31
1 32
1 33
1 35
1 36
1 37
1 40
1 41
1 45
1 46
1 48
1 49
1 52
1 56
1 57
1 65
1 67
1 68
1 69
1 71
1 73
1 75
1 76
1 78
1 83
1 84
1 85
1 86
1 88
1 90
1 91
1 93
1 94
1 95
1 96
1 97
1 98
1 99
1 100
1 101
1 102
1 103
1 104
1 105
1 106
1 107
1 108
1 109
1 110
1 111
1 112
1 113
1 114
1 115
1 116
1 117
1 118
1 119
1 120
1 121
1 122
1 123
1 124
1 125
1 126
1 127
1 128
1 129
1 130
1 131
1 132
1 133
1 134
1 135
1 136
1 137
1 138
1 139
1 140
1 141
1 142
1 143
1 144
1 145
1 146
1 147
1 148
1 149
1 150
1 151
1 152
1 153
1 154
1 155
1 156
1 157
1 158
1 159
1 160
1 161
1 162
1 163
1 164
1 165
1 166
1 167
1 168
1 169
1 170
1 171
1 172
1 173
1 174
1 175
1 176
1 177
2 3
3 4
6 7
7 8
12 13
14 17
15 16
16 17
20 21
23 25
24 25
28 30
29 30
33 34
37 39
38 39
41 42
42 43
43 44
46 47
49 51
50 51
52 53
53 55
54 55
57 58
58 60
59 60
60 63
61 62
62 64
63 64
65 66
69 70
71 72
73 74
76 77
78 80
79 80
80 82
81 82
86 87
88 89
91 92
